--- Job MPEC_technology_agnostic_instrument.gms Start 10/19/21 22:58:27 30.3.0 rc5da09e WEX-WEI x86 64bit/MS Windows
--- GAMS Parameters defined
    Input C:\Users\a.eicke\Documents\Locational-investment-signals\Three node models\MPEC_technology_agnostic_instrument.gms
    PageSize 0
    ScrDir C:\Users\a.eicke\Documents\Locational-investment-signals\Three node models\225b\
    SysDir C:\GAMS\win64\30.3\
    LogOption 3
    ErrMsg 1
    ErrorLog 99
    IDE 1
    LstTitleLeftAligned 1
GAMS 30.3.0   Copyright (C) 1987-2020 GAMS Development. All rights reserved
Licensee: Small MUD - 5 User License                     S190305:0326AO-WIN
          Hertie School of Governance GmbH, Governance of DigitalizaDC14808
--- Starting compilation
--- MPEC_technology_agnostic_instrument.gms(85) 3 Mb
--- GDXin=C:\Users\a.eicke\Documents\Locational-investment-signals\Three node models\in.gdx
--- MPEC_technology_agnostic_instrument.gms(324) 3 Mb
--- Starting execution: elapsed 0:00:00.021
--- MPEC_technology_agnostic_instrument.gms(295) 4 Mb
--- Generating MIQCP model LOCI
--- MPEC_technology_agnostic_instrument.gms(298) 6 Mb
---   1,579 rows  1,167 columns  4,367 non-zeroes
---   234 nl-code  40 nl-non-zeroes
---   320 discrete-columns
--- MPEC_technology_agnostic_instrument.gms(298) 4 Mb
--- Executing CPLEX: elapsed 0:00:00.039

IBM ILOG CPLEX   30.3.0 rc5da09e Released Mar 06, 2020 WEI x86 64bit/MS Window
--- GAMS/Cplex licensed for continuous and discrete problems.
Cplex 12.10.0.0

The search will stop after 35000000 nodes.
Reading data...
Starting Cplex...
Space for names approximately 0.08 Mb
Use option 'names no' to turn use of names off
Version identifier: 12.10.0.0 | 2019-11-26 | 843d4de2ae
CPXPARAM_Advance                                 0
CPXPARAM_Threads                                 1
CPXPARAM_Parallel                                1
CPXPARAM_MIP_Display                             4
CPXPARAM_Simplex_Limits_Iterations               2000000000
CPXPARAM_MIP_Limits_Nodes                        35000000
CPXPARAM_TimeLimit                               50000
CPXPARAM_Tune_TimeLimit                          10000
CPXPARAM_MIP_Tolerances_AbsMIPGap                0
CPXPARAM_MIP_Tolerances_MIPGap                   0.10000000000000001
CPXPARAM_WorkDir                                 "C:\Users\a.eicke\Documents\Locational-investment-signals\Three node models\225b\"
Tried aggregator 2 times.
MIQP Presolve eliminated 546 rows and 172 columns.
MIQP Presolve modified 432 coefficients.
Aggregator did 33 substitutions.
Reduced MIQP has 1000 rows, 955 columns, and 2944 nonzeros.
Reduced MIQP has 272 binaries, 0 generals, 0 SOSs, and 0 indicators.
Reduced MIQP objective Q matrix has 72 nonzeros.
Presolve time = 0.02 sec. (3.11 ticks)
Probing fixed 0 vars, tightened 92 bounds.
Probing time = 0.02 sec. (0.88 ticks)
Tried aggregator 1 time.
MIQP Presolve modified 92 coefficients.
Reduced MIQP has 1000 rows, 955 columns, and 2944 nonzeros.
Reduced MIQP has 272 binaries, 0 generals, 0 SOSs, and 0 indicators.
Reduced MIQP objective Q matrix has 72 nonzeros.
Presolve time = 0.00 sec. (1.64 ticks)
Classifier predicts products in MIQP should be linearized.
Probing fixed 0 vars, tightened 6 bounds.
Probing time = 0.02 sec. (0.58 ticks)
Clique table members: 232.
MIP emphasis: balance optimality and feasibility.
MIP search method: dynamic search.
Parallel mode: none, using 1 thread.
Number of nonzeros in lower triangle of Q = 16
Using Approximate Minimum Degree ordering
Total time for automatic ordering = 0.00 sec. (0.00 ticks)
Summary statistics for factor of Q:
  Rows in Factor            = 40
  Integer space required    = 40
  Total non-zeros in factor = 56
  Total FP ops to factor    = 88
Tried aggregator 1 time.
Aggregator did 272 substitutions.
Number of nonzeros in lower triangle of Q = 16
Using Approximate Minimum Degree ordering
Total time for automatic ordering = 0.00 sec. (0.00 ticks)
Summary statistics for factor of Q:
  Rows in Factor            = 40
  Integer space required    = 40
  Total non-zeros in factor = 56
  Total FP ops to factor    = 88
Reduced QP has 728 rows, 683 columns, and 2400 nonzeros.
Reduced QP objective Q matrix has 72 nonzeros.
Presolve time = 0.00 sec. (0.76 ticks)
Tried aggregator 1 time.
QP Presolve eliminated 16 rows and 16 columns.
QP Presolve added 0 rows and 40 columns.
Reduced QP has 752 rows, 707 columns, and 2464 nonzeros.
Reduced QP objective Q matrix has 24 nonzeros.
Presolve time = 0.00 sec. (0.38 ticks)
Parallel mode: none, using 1 thread for barrier

***NOTE: Found 6 dense columns.

Number of nonzeros in lower triangle of A*A' = 3851
Using Approximate Minimum Degree ordering
Total time for automatic ordering = 0.00 sec. (0.39 ticks)
Summary statistics for Cholesky factor:
  Rows in Factor            = 758
  Integer space required    = 1951
  Total non-zeros in factor = 10395
  Total FP ops to factor    = 211965
 Itn      Primal Obj        Dual Obj  Prim Inf Upper Inf  Dual Inf          
   0   1.0518180e+08   2.6692299e+10  2.74e+07  1.93e+07  5.48e+05
   1   6.2095129e+07   1.9072484e+10  1.65e+07  1.16e+07  3.30e+05
   2   2.2994690e+07   1.0623159e+10  5.59e+06  3.95e+06  1.12e+05
   3   8.3325389e+05   6.7057120e+08  2.21e+05  1.56e+05  4.41e+03
   4   5.3501945e+03   9.7831399e+07  1.76e+04  1.24e+04  3.51e+02
   5  -1.8517184e+05   3.2269230e+07  3.72e+03  2.63e+03  7.43e+01
   6  -1.4584487e+05   1.4288445e+07  1.29e+03  9.10e+02  2.58e+01
   7  -1.7303343e+04   2.0058001e+06  5.51e+01  3.89e+01  1.10e+00
   8   7.8982881e+04   4.7533596e+05  4.50e+00  3.18e+00  9.00e-02
   9   1.1120989e+05   2.4103081e+05  1.10e+00  7.78e-01  2.20e-02
  10   1.2387789e+05   1.7125501e+05  2.89e-01  2.04e-01  5.77e-03
  11   1.2393849e+05   1.6198793e+05  1.27e-01  8.96e-02  2.54e-03
  12   1.2818048e+05   1.4207594e+05  3.14e-02  2.22e-02  6.29e-04
  13   1.2979262e+05   1.3511270e+05  8.17e-03  5.77e-03  1.63e-04
  14   1.3025462e+05   1.3368918e+05  4.16e-09  7.70e-10  3.98e-12
  15   1.3081965e+05   1.3150091e+05  5.94e-09  8.65e-10  3.48e-12
  16   1.3095236e+05   1.3103301e+05  2.49e-08  7.47e-10  3.63e-12
  17   1.3097179e+05   1.3097492e+05  1.66e-08  8.87e-10  4.07e-12
  18   1.3097274e+05   1.3097276e+05  2.57e-08  6.44e-10  3.78e-12
  19   1.3097275e+05   1.3097275e+05  2.11e-08  8.33e-10  4.13e-12
  20   1.3097275e+05   1.3097275e+05  1.11e-08  8.10e-10  3.69e-12
Barrier time = 0.03 sec. (13.22 ticks)

Total time on 1 threads = 0.03 sec. (13.98 ticks)
Barrier time = 0.03 sec. (13.23 ticks)

QP crossover.
  Primal and Dual:  Fixing 336 variables.
  Primal:  Pushed 29, exchanged 218.
  Dual  :  Pushed 89, exchanged 209.
Total crossover time = 0.02 sec. (8.42 ticks)

Total time on 1 threads = 0.05 sec. (22.50 ticks)
Root relaxation solution time = 0.05 sec. (22.50 ticks)

        Nodes                                         Cuts/
   Node  Left     Objective  IInf  Best Integer    Best Bound    ItCnt     Gap

      0     0   130972.7462   141                 130972.7462       20         
      0     0   130959.3037   141                    Cuts: 92      423         
      0     0   130958.8920   141                   Cuts: 113      676         
      0     0   130814.2500   141                   Cuts: 114     1155         
      0     0   130732.6393   141                   Cuts: 104     1290         
      0     0   130732.6393   141                    Cuts: 65     1390         
      0     0   130718.9792   141                    Cuts: 49     1517         
      0     0   130699.9006   141                    Cuts: 49     1684         
      0     0   130658.5169   141                    Cuts: 76     1821         
      0     0   130657.4563   141                    Cuts: 74     1974         
      0     2   130657.4563   162                 130542.3979     1974         
Elapsed time = 1.61 sec. (823.19 ticks, tree = 0.01 MB, solutions = 0)
     14    14   128592.0887   122                 129630.2340     6810         
     26    26   128592.0887   125                 129630.2340    11065         
     30    28   128133.1386   114                 129630.2340    13563         
     50    40   126584.5964    40                 129630.2340    19868         
     79    63   122150.0724    33                 128628.6155    24202         
     80    64   124178.9766    50                 128628.6155    24204         
*   109    91      integral     0        0.0000   128628.6155    27500     --- 
Found incumbent of value 0.000000 after 4.48 sec. (2645.44 ticks)
    120   102        0.0000     1        0.0000   128628.6155    27586     --- 
    147   125   124748.9488   147        0.0000   128612.8945    32067     --- 
                                                     Cuts: 10                  
    200   176   114193.1969    40        0.0000   128612.8945    36266     --- 
*   220+  150                            0.0000   128592.0887              --- 
Found incumbent of value 0.000000 after 6.08 sec. (3484.04 ticks)
    270   180   123942.0404    79        0.0000   128592.0887    50328     --- 
                                                     Cuts: 18                  
Elapsed time = 7.25 sec. (4223.42 ticks, tree = 0.11 MB, solutions = 8)
    378   266   118251.6030    46        0.0000   128592.0887    69533     --- 
                                                      Cuts: 5                  
    557   405   125182.7057    90        0.0000   128592.0887    89397     --- 
                                                     Cuts: 12                  
    674   500   116381.1631    61        0.0000   128133.1386   107707     --- 
                                                      Cuts: 9                  
    835   635   124991.7099    76        0.0000   128098.2365   121635     --- 
                                                     Cuts: 12                  

Performing restart 1

Repeating presolve.
Tried aggregator 1 time.
MIQP Presolve modified 6 coefficients.
Reduced MIQP has 1000 rows, 955 columns, and 2944 nonzeros.
Reduced MIQP has 272 binaries, 0 generals, 0 SOSs, and 0 indicators.
Reduced MIQP objective Q matrix has 72 nonzeros.
Presolve time = 0.00 sec. (1.39 ticks)
Tried aggregator 1 time.
Reduced MIQP has 1000 rows, 955 columns, and 2944 nonzeros.
Reduced MIQP has 272 binaries, 0 generals, 0 SOSs, and 0 indicators.
Reduced MIQP objective Q matrix has 72 nonzeros.
Presolve time = 0.00 sec. (1.22 ticks)
Represolve time = 0.02 sec. (4.69 ticks)
Number of nonzeros in lower triangle of Q = 16
Using Approximate Minimum Degree ordering
Total time for automatic ordering = 0.00 sec. (0.00 ticks)
Summary statistics for factor of Q:
  Rows in Factor            = 40
  Integer space required    = 40
  Total non-zeros in factor = 56
  Total FP ops to factor    = 88
Tried aggregator 1 time.
Aggregator did 145 substitutions.
Number of nonzeros in lower triangle of Q = 16
Using Approximate Minimum Degree ordering
Total time for automatic ordering = 0.00 sec. (0.00 ticks)
Summary statistics for factor of Q:
  Rows in Factor            = 40
  Integer space required    = 40
  Total non-zeros in factor = 56
  Total FP ops to factor    = 88
Reduced QP has 1183 rows, 810 columns, and 3835 nonzeros.
Reduced QP objective Q matrix has 72 nonzeros.
Presolve time = 0.02 sec. (0.96 ticks)
Tried aggregator 1 time.
QP Presolve eliminated 16 rows and 16 columns.
QP Presolve added 0 rows and 40 columns.
Reduced QP has 1207 rows, 834 columns, and 3899 nonzeros.
Reduced QP objective Q matrix has 24 nonzeros.
Presolve time = 0.00 sec. (0.55 ticks)
Parallel mode: none, using 1 thread for barrier

***NOTE: Found 5 dense columns.

Number of nonzeros in lower triangle of A*A' = 8766
Using Approximate Minimum Degree ordering
Total time for automatic ordering = 0.00 sec. (0.85 ticks)
Summary statistics for Cholesky factor:
  Rows in Factor            = 1212
  Integer space required    = 4807
  Total non-zeros in factor = 30091
  Total FP ops to factor    = 1028375
 Itn      Primal Obj        Dual Obj  Prim Inf Upper Inf  Dual Inf          
   0  -3.4268769e+08   6.4910113e+10  5.69e+07  3.39e+07  2.51e+06
   1  -2.7319430e+08   5.4260091e+10  4.07e+07  2.42e+07  1.79e+06
   2  -1.6918776e+08   3.6488620e+10  2.17e+07  1.29e+07  9.55e+05
   3  -1.0556200e+07   6.0301550e+09  1.22e+06  7.26e+05  5.37e+04
   4  -9.7063011e+05   8.3397213e+08  1.28e+05  7.64e+04  5.66e+03
   5  -3.3159393e+05   1.6241687e+08  1.47e+04  8.76e+03  6.49e+02
   6  -3.5939639e+05   1.2730766e+08  1.02e+04  6.10e+03  4.51e+02
   7  -3.8805135e+05   9.1773925e+07  6.31e+03  3.76e+03  2.78e+02
   8  -4.4784471e+05   6.9381124e+07  3.46e+03  2.06e+03  1.53e+02
   9  -4.0545051e+05   2.4080893e+07  9.26e+02  5.52e+02  4.08e+01
  10  -3.8483840e+05   2.0640517e+07  5.99e+02  3.57e+02  2.64e+01
  11  -3.0289831e+05   1.3727413e+07  2.88e+02  1.71e+02  1.27e+01
  12  -1.4653202e+05   4.4168286e+06  1.60e+01  9.53e+00  7.06e-01
  13   8.4742563e+03   2.8299915e+06  4.98e+00  2.97e+00  2.20e-01
  14   5.9716408e+04   1.0359406e+06  7.38e-09  7.55e-10  2.10e-10
  15   9.4364300e+04   4.4812221e+05  7.60e-09  6.37e-10  1.05e-10
  16   1.0923944e+05   3.0656834e+05  5.93e-09  8.41e-10  5.21e-11
  17   1.2362966e+05   1.6893697e+05  6.96e-09  7.74e-10  2.59e-11
  18   1.2714007e+05   1.5164925e+05  6.92e-09  6.03e-10  1.43e-11
  19   1.2848783e+05   1.4310134e+05  8.12e-09  6.64e-10  1.35e-11
  20   1.2977605e+05   1.3577151e+05  1.19e-08  7.13e-10  8.82e-12
  21   1.2994776e+05   1.3437496e+05  9.32e-09  6.88e-10  9.44e-12
  22   1.3029190e+05   1.3262528e+05  1.16e-08  6.36e-10  9.58e-12
  23   1.3058403e+05   1.3105627e+05  1.36e-08  6.12e-10  1.12e-11
  24   1.3063819e+05   1.3076460e+05  1.30e-08  8.08e-10  8.25e-12
  25   1.3065039e+05   1.3069723e+05  1.44e-08  8.05e-10  8.91e-12
  26   1.3065379e+05   1.3067821e+05  2.15e-08  7.65e-10  8.74e-12
  27   1.3065530e+05   1.3066966e+05  1.72e-08  7.52e-10  9.16e-12
  28   1.3065676e+05   1.3066147e+05  2.45e-08  5.05e-10  7.06e-12
  29   1.3065730e+05   1.3065833e+05  3.69e-08  8.23e-10  9.34e-12
  30   1.3065745e+05   1.3065747e+05  3.26e-08  9.10e-10  1.16e-11
  31   1.3065746e+05   1.3065746e+05  4.35e-08  1.11e-09  8.96e-12
  32   1.3065746e+05   1.3065746e+05  1.91e-08  7.06e-10  1.04e-11
Barrier time = 0.11 sec. (43.85 ticks)

Total time on 1 threads = 0.13 sec. (44.81 ticks)
Barrier time = 0.11 sec. (43.87 ticks)

QP crossover.
  Primal and Dual:  Fixing 482 variables.
Markowitz threshold set to 0.1
  Primal:  Pushed 140, exchanged 284.
  Dual  :  Pushed 63, exchanged 270.
Total crossover time = 0.03 sec. (20.60 ticks)

Total time on 1 threads = 0.16 sec. (65.55 ticks)
    938     0   130359.2767   129        0.0000     Cuts: 295   135605     --- 
    938     0   130244.8215   129        0.0000     Cuts: 100   135796     --- 
    938     0   129632.3040   129        0.0000     Cuts: 135   136093     --- 
    938     0   129632.3040   129        0.0000     Cuts: 167   136281     --- 
    938     0   129630.0362   129        0.0000     Cuts: 109   136493     --- 
    938     0   129612.2750   129        0.0000     Cuts: 122   136931     --- 
    938     0   129612.2750   129        0.0000     Cuts: 178   137442     --- 
    938     0   129289.9264   129        0.0000     Cuts: 159   137874     --- 
    938     0   129289.9264   129        0.0000     Cuts: 143   138252     --- 
    938     2   129289.9264   111        0.0000   128098.2365   138252     --- 
    948    12   129044.5216   105        0.0000   128098.2365   140640     --- 
    962    24        cutoff              0.0000   128098.2365   144679     --- 
    991    51   120636.3896    66        0.0000   128098.2365   150275     --- 
   1076   111   129275.5271   112        0.0000   128098.2365   156335     --- 
   1162   189   125931.6476    70        0.0000   128098.2365   163396     --- 
Elapsed time = 22.56 sec. (15087.62 ticks, tree = 0.11 MB, solutions = 10)
   1246   259   121241.7052    60        0.0000   128098.2365   170458     --- 
   1336   333   117658.4107    46        0.0000   128098.2365   184095     --- 
                                                     Cuts: 46                  
   1400   377   122212.7239    60        0.0000   128098.2365   198485     --- 
   1506   463   118955.7020    48        0.0000   128098.2365   210313     --- 
   1559   492   126671.0892   110        0.0000   128098.2365   222050     --- 
                                                   MIRcuts: 2                  
   1586   517    infeasible              0.0000   128098.2365   228694     --- 
*  1618+  429                       109490.2980   128098.2365            17.00%
Found incumbent of value 109490.298044 after 31.06 sec. (21290.11 ticks)
   1667   451        cutoff         109490.2980   128098.2365   240914   17.00%
   1784   536   128053.9764    94   109490.2980   128053.9764   249182   16.95%
   1863   611   112628.6017    25   109490.2980   128053.9764   255774   16.95%
   2008   727   124339.9238    58   109490.2980   128028.9964   266031   16.93%
Elapsed time = 35.97 sec. (24929.37 ticks, tree = 0.44 MB, solutions = 18)
   2111   804   127557.6324    81   109490.2980   127930.8862   279047   16.84%
   2226   909   126597.7644     4   109490.2980   127930.8862   290268   16.84%
   2341   990   122206.5813    22   109490.2980   127902.3685   301009   16.82%
   2438  1057   118481.9965    26   109490.2980   127770.3733   312468   16.70%
   2526  1109   121217.5602    59   109490.2980   127762.8419   326428   16.69%
   2667  1223   111560.8866    37   109490.2980   127709.2152   337578   16.64%
   2829  1346   120148.2580    54   109490.2980   127674.0519   349816   16.61%
   3035  1510   126644.8517     5   109490.2980   127567.3094   365392   16.51%
*  3058+  352                       126592.1870   127567.3094             0.77%
Found incumbent of value 126592.186977 after 46.66 sec. (32663.35 ticks)

Clique cuts applied:  13
Implied bound cuts applied:  1
Flow cuts applied:  101
Mixed integer rounding cuts applied:  78
Gomory fractional cuts applied:  1

Root node processing (before b&c):
  Real time             =    1.61 sec. (823.40 ticks)
Sequential b&c:
  Real time             =   45.05 sec. (31841.13 ticks)
                          ------------
Total (root+branch&cut) =   46.66 sec. (32664.53 ticks)
MIQP status(102): integer optimal, tolerance
Cplex Time: 46.66sec (det. 32664.54 ticks)
Fixing integer variables, and solving final QP..
Version identifier: 12.10.0.0 | 2019-11-26 | 843d4de2ae
CPXPARAM_Advance                                 2
CPXPARAM_Threads                                 1
CPXPARAM_Parallel                                1
CPXPARAM_MIP_Display                             4
CPXPARAM_Simplex_Limits_Iterations               2000000000
CPXPARAM_MIP_Limits_Nodes                        35000000
CPXPARAM_TimeLimit                               50000
CPXPARAM_Tune_TimeLimit                          10000
CPXPARAM_MIP_Tolerances_AbsMIPGap                0
CPXPARAM_MIP_Tolerances_MIPGap                   0.10000000000000001
CPXPARAM_WorkDir                                 "C:\Users\a.eicke\Documents\Locational-investment-signals\Three node models\225b\"
Number of nonzeros in lower triangle of Q = 16
Using Approximate Minimum Degree ordering
Total time for automatic ordering = 0.00 sec. (0.00 ticks)
Summary statistics for factor of Q:
  Rows in Factor            = 40
  Integer space required    = 40
  Total non-zeros in factor = 56
  Total FP ops to factor    = 88
Tried aggregator 1 time.
QP Presolve eliminated 1287 rows and 914 columns.
QP Presolve added 0 rows and 40 columns.
Aggregator did 167 substitutions.
Reduced QP has 165 rows, 126 columns, and 576 nonzeros.
Reduced QP objective Q matrix has 13 nonzeros.
Presolve time = 0.02 sec. (1.28 ticks)
Parallel mode: none, using 1 thread for barrier

***NOTE: Found 3 dense columns.

Number of nonzeros in lower triangle of A*A' = 1222
Using Approximate Minimum Degree ordering
Total time for automatic ordering = 0.00 sec. (0.06 ticks)
Summary statistics for Cholesky factor:
  Rows in Factor            = 168
  Integer space required    = 353
  Total non-zeros in factor = 2403
  Total FP ops to factor    = 42531
 Itn      Primal Obj        Dual Obj  Prim Inf Upper Inf  Dual Inf          
   0  -6.6007420e+07   4.0089662e+09  6.51e+06  4.63e+06  1.04e+05
   1  -7.6916818e+07   4.2930932e+09  6.50e+06  4.62e+06  2.05e+05
   2  -5.1803371e+07   2.1606566e+09  2.75e+06  1.96e+06  8.68e+04
   3  -4.9190387e+07   2.0038807e+09  2.59e+06  1.84e+06  8.17e+04
   4  -2.9902167e+07   1.7874653e+09  2.01e+06  1.43e+06  5.97e+05
   5  -2.4607633e+07   1.1397158e+09  7.85e+05  5.58e+05  2.33e+05
   6  -2.6552312e+07   1.0360835e+09  5.67e+05  4.03e+05  7.19e+05
   7  -1.7683723e+07   1.5337691e+08  9.85e+03  7.01e+03  1.26e+04
   8  -1.4414863e+07   1.2373299e+08  6.85e+03  4.87e+03  2.90e+05
   9  -1.4341621e+07   1.1516583e+08  6.71e+03  4.72e+03  2.60e+05
  10  -1.4293803e+07   1.2522372e+08  6.61e+03  4.65e+03  3.84e+05
  11  -1.3941970e+07   1.1277244e+08  6.09e+03  4.28e+03  3.00e+05
  12  -1.3654196e+07   1.2063137e+08  5.50e+03  3.88e+03  2.89e+05
  13  -9.1201382e+06   6.7756833e+07  3.65e+03  2.57e+03  1.18e+05
  14  -7.9866604e+06   5.1650294e+07  2.82e+03  1.99e+03  2.41e+05
  15  -7.9363609e+06   6.3500281e+07  2.73e+03  1.93e+03  8.88e+04
  16  -3.7020210e+05   3.0108618e+07  1.35e+02  9.53e+01  9.11e+05
  17   8.5728439e+04   2.3812976e+06  9.80e+00  6.93e+00  6.62e+04
  18   1.2031548e+05   4.8964372e+05  1.51e+00  1.07e+00  1.02e+04
  19   1.2509735e+05   2.5436883e+05  5.11e-01  3.61e-01  3.45e+03
  20   1.2545921e+05   1.5700363e+05  6.67e-02  4.71e-02  4.51e+02
  21   1.2629012e+05   1.3639815e+05  1.94e-02  1.36e-02  1.28e+02
  22   1.2636472e+05   1.3150655e+05  5.83e-03  4.10e-03  3.87e+01
  23   1.2655925e+05   1.2702559e+05  3.76e-04  2.63e-04  2.46e+00
  24   1.2659100e+05   1.2661283e+05  1.79e-05  1.22e-05  1.15e-01
  25   1.2659217e+05   1.2659248e+05  1.51e-06  1.47e-07  1.38e-03
  26   1.2659219e+05   1.2659219e+05  9.34e-07  9.03e-10  6.95e-06
  27   1.2659219e+05   1.2659219e+05  6.65e-07  1.05e-10  3.05e-08
Barrier time = 0.02 sec. (5.14 ticks)

Total time on 1 threads = 0.02 sec. (5.14 ticks)
QP status(1): optimal
Cplex Time: 0.02sec (det. 5.14 ticks)

Solution satisfies tolerances.

MIP Solution:       126592.186977    (366223 iterations, 3058 nodes)
Final Solve:        126592.186975    (0 iterations)

Best possible:      127567.309410
Absolute gap:          975.122434
Relative gap:            0.007644

--- Restarting execution
--- MPEC_technology_agnostic_instrument.gms(298) 2 Mb
--- Reading solution for model LOCI
--- Executing after solve: elapsed 0:00:46.944
--- MPEC_technology_agnostic_instrument.gms(324) 3 Mb
--- GDX File C:\Users\a.eicke\Documents\Locational-investment-signals\Three node models\Output/agnostic_instrument.gdx
*** Status: Normal completion
--- Job MPEC_technology_agnostic_instrument.gms Stop 10/19/21 22:59:14 elapsed 0:00:46.948
